NAME: Random_70_4
ELLAPSED_TIME_(ms): 0
TOUR_SIZE: 1873.444
TOUR_SECTION
0
22
30
7
53
20
12
47
26
1
34
43
2
28
51
15
46
16
27
44
19
9
64
60
65
33
40
49
57
4
62
63
52
69
50
3
67
17
66
54
35
61
25
6
23
21
37
24
45
36
14
68
41
8
18
58
10
42
29
5
31
59
39
38
55
11
56
13
32
48
0
EOF
